NAME : rc_203.1.4884224.tour
COMMENT : Length = 4884224
COMMENT : Found by LKH [Keld Helsgaun] Tue May  2 05:51:22 2017
TYPE : TOUR
DIMENSION : 19
TOUR_SECTION
1
17
18
16
11
14
9
4
13
10
12
19
15
8
6
5
7
3
2
-1
EOF
